NAME : optical-integer.pruned_global_16.0.tour
COMMENT : Length = 0
TYPE : TOUR
DIMENSION : 174
TOUR_SECTION
1
4
6
5
37
38
129
65
64
63
62
61
136
60
59
97
10
48
7
8
9
12
14
16
133
104
107
108
126
18
19
17
15
13
11
131
95
96
94
93
92
91
90
89
135
21
23
24
22
20
163
151
152
132
2
39
40
41
42
43
44
173
26
25
174
27
28
29
31
32
30
125
66
68
71
73
74
72
70
167
69
67
164
105
121
140
101
138
119
117
134
144
148
160
146
149
153
156
154
150
127
155
158
157
130
128
103
137
171
120
170
139
172
166
116
100
168
123
54
86
87
88
51
98
50
122
55
56
58
57
165
118
115
159
141
145
143
147
142
106
112
109
111
110
102
114
113
162
82
84
85
83
81
80
79
78
77
76
75
169
45
46
47
99
35
36
34
33
161
49
52
53
124
3
-1
EOF
